(set-info :smt-lib-version 2.6)
(set-logic UF)
(set-info :source |Benchmarks from the paper: "Extending Sledgehammer with SMT Solvers" by Jasmin Blanchette, Sascha Bohme, and Lawrence C. Paulson, CADE 2011.  Translated to SMT2 by Andrew Reynolds and Morgan Deters.|)
(set-info :category "industrial")
(set-info :status unknown)
(declare-sort S1 0)
(declare-sort S2 0)
(declare-sort S3 0)
(declare-sort S4 0)
(declare-sort S5 0)
(declare-sort S6 0)
(declare-sort S7 0)
(declare-sort S8 0)
(declare-sort S9 0)
(declare-sort S10 0)
(declare-sort S11 0)
(declare-sort S12 0)
(declare-sort S13 0)
(declare-sort S14 0)
(declare-sort S15 0)
(declare-sort S16 0)
(declare-sort S17 0)
(declare-sort S18 0)
(declare-sort S19 0)
(declare-sort S20 0)
(declare-sort S21 0)
(declare-sort S22 0)
(declare-sort S23 0)
(declare-sort S24 0)
(declare-sort S25 0)
(declare-sort S26 0)
(declare-sort S27 0)
(declare-sort S28 0)
(declare-sort S29 0)
(declare-sort S30 0)
(declare-sort S31 0)
(declare-sort S32 0)
(declare-sort S33 0)
(declare-sort S34 0)
(declare-sort S35 0)
(declare-sort S36 0)
(declare-fun f1 () S1)
(declare-fun f2 () S1)
(declare-fun f3 (S3 S2) S1)
(declare-fun f4 (S4 S2) S3)
(declare-fun f5 () S4)
(declare-fun f6 (S6 S7 S8 S9 S5) S1)
(declare-fun f7 () S6)
(declare-fun f8 () S7)
(declare-fun f9 () S8)
(declare-fun f10 (S10 S9) S9)
(declare-fun f11 (S11 S12) S10)
(declare-fun f12 () S11)
(declare-fun f13 () S12)
(declare-fun f14 () S9)
(declare-fun f15 (S4 S5 S5) S1)
(declare-fun f16 (S6) S4)
(declare-fun f17 () S5)
(declare-fun f18 (S13 S14) S1)
(declare-fun f19 (S15 S16) S13)
(declare-fun f20 (S17 S16) S15)
(declare-fun f21 () S17)
(declare-fun f22 (S18 S19) S16)
(declare-fun f23 (S20 S12) S18)
(declare-fun f24 () S20)
(declare-fun f25 () S12)
(declare-fun f26 (S21 S22) S19)
(declare-fun f27 (S23 S7) S21)
(declare-fun f28 () S23)
(declare-fun f29 () S7)
(declare-fun f30 () S22)
(declare-fun f31 () S22)
(declare-fun f32 (S6) S14)
(declare-fun f33 (S24 S19) S1)
(declare-fun f34 (S25 S8) S24)
(declare-fun f35 (S6) S25)
(declare-fun f36 (S6 S7 S8 S12 S2) S1)
(declare-fun f37 (S26 S6) S1)
(declare-fun f38 () S26)
(declare-fun f39 (S27 S5) S5)
(declare-fun f40 (S28 S2) S27)
(declare-fun f41 () S28)
(declare-fun f42 (S31 S29) S29)
(declare-fun f43 (S32 S30) S31)
(declare-fun f44 () S32)
(declare-fun f45 (S34 S33) S33)
(declare-fun f46 (S35 S29) S34)
(declare-fun f47 () S35)
(declare-fun f48 (S6 S7) S1)
(declare-fun f49 (S6 S7 S22 S8) S1)
(declare-fun f50 (S19) S7)
(declare-fun f51 (S14 S13) S1)
(declare-fun f52 (S36 S16) S1)
(assert (not (= f1 f2)))
(assert (forall ((?v0 S2) (?v1 S2)) (= (= (f3 (f4 f5 ?v0) ?v1) f1) (= ?v0 ?v1))))
(assert (not (exists ((?v0 S5)) (and (= (f6 f7 f8 f9 (f10 (f11 f12 f13) f14) ?v0) f1) (= (f15 (f16 f7) ?v0 f17) f1)))))
(assert (= (f18 (f19 (f20 f21 (f22 (f23 f24 f25) (f26 (f27 f28 f29) f30))) (f22 (f23 f24 f13) (f26 (f27 f28 f8) f31))) (f32 f7)) f1))
(assert (forall ((?v0 S8) (?v1 S2)) (=> (= (f33 (f34 (f35 f7) ?v0) (f26 (f27 f28 f29) f30)) f1) (=> (= (f36 f7 f29 ?v0 f25 ?v1) f1) (exists ((?v2 S2)) (and (= (f36 f7 f8 ?v0 f13 ?v2) f1) (= (f3 (f4 (f16 f7) ?v2) ?v1) f1)))))))
(assert (= (f33 (f34 (f35 f7) f9) (f26 (f27 f28 f29) f30)) f1))
(assert (= (f6 f7 f29 f9 (f10 (f11 f12 f25) f14) f17) f1))
(assert (= (f33 (f34 (f35 f7) f9) (f26 (f27 f28 f29) f30)) f1))
(assert (= (f6 f7 f29 f9 (f10 (f11 f12 f25) f14) f17) f1))
(assert (forall ((?v0 S8) (?v1 S2)) (=> (= (f33 (f34 (f35 f7) ?v0) (f26 (f27 f28 f29) f30)) f1) (=> (= (f36 f7 f29 ?v0 f25 ?v1) f1) (exists ((?v2 S2)) (and (= (f36 f7 f8 ?v0 f13 ?v2) f1) (= (f3 (f4 (f16 f7) ?v2) ?v1) f1)))))))
(assert (= (f18 (f19 (f20 f21 (f22 (f23 f24 f25) (f26 (f27 f28 f29) f30))) (f22 (f23 f24 f13) (f26 (f27 f28 f8) f31))) (f32 f7)) f1))
(assert (forall ((?v0 S6) (?v1 S5)) (= (f15 (f16 ?v0) ?v1 ?v1) f1)))
(assert (forall ((?v0 S6) (?v1 S2)) (= (f3 (f4 (f16 ?v0) ?v1) ?v1) f1)))
(assert (= (f37 f38 f7) f1))
(assert (forall ((?v0 S6) (?v1 S5) (?v2 S5) (?v3 S5)) (let ((?v_0 (f16 ?v0))) (=> (= (f15 ?v_0 ?v1 ?v2) f1) (=> (= (f15 ?v_0 ?v2 ?v3) f1) (= (f15 ?v_0 ?v1 ?v3) f1))))))
(assert (forall ((?v0 S4) (?v1 S2) (?v2 S5) (?v3 S2) (?v4 S5)) (= (= (f15 ?v0 (f39 (f40 f41 ?v1) ?v2) (f39 (f40 f41 ?v3) ?v4)) f1) (and (= (f3 (f4 ?v0 ?v1) ?v3) f1) (= (f15 ?v0 ?v2 ?v4) f1)))))
(assert (forall ((?v0 S6) (?v1 S2) (?v2 S2) (?v3 S2)) (let ((?v_0 (f16 ?v0))) (let ((?v_1 (f4 ?v_0 ?v1))) (=> (= (f3 ?v_1 ?v2) f1) (=> (= (f3 (f4 ?v_0 ?v2) ?v3) f1) (= (f3 ?v_1 ?v3) f1)))))))
(assert (forall ((?v0 S5) (?v1 S5)) (= (= ?v0 ?v1) (= (f15 f5 ?v0 ?v1) f1))))
(assert (forall ((?v0 S4) (?v1 S5) (?v2 S2) (?v3 S5)) (= (= (f15 ?v0 ?v1 (f39 (f40 f41 ?v2) ?v3)) f1) (exists ((?v4 S2) (?v5 S5)) (and (= ?v1 (f39 (f40 f41 ?v4) ?v5)) (and (= (f3 (f4 ?v0 ?v4) ?v2) f1) (= (f15 ?v0 ?v5 ?v3) f1)))))))
(assert (forall ((?v0 S4) (?v1 S2) (?v2 S5) (?v3 S5)) (= (= (f15 ?v0 (f39 (f40 f41 ?v1) ?v2) ?v3) f1) (exists ((?v4 S2) (?v5 S5)) (and (= ?v3 (f39 (f40 f41 ?v4) ?v5)) (and (= (f3 (f4 ?v0 ?v1) ?v4) f1) (= (f15 ?v0 ?v2 ?v5) f1)))))))
(assert (forall ((?v0 S29) (?v1 S30)) (not (= ?v0 (f42 (f43 f44 ?v1) ?v0)))))
(assert (forall ((?v0 S33) (?v1 S29)) (not (= ?v0 (f45 (f46 f47 ?v1) ?v0)))))
(assert (forall ((?v0 S5) (?v1 S2)) (not (= ?v0 (f39 (f40 f41 ?v1) ?v0)))))
(assert (forall ((?v0 S9) (?v1 S12)) (not (= ?v0 (f10 (f11 f12 ?v1) ?v0)))))
(assert (forall ((?v0 S30) (?v1 S29)) (not (= (f42 (f43 f44 ?v0) ?v1) ?v1))))
(assert (forall ((?v0 S29) (?v1 S33)) (not (= (f45 (f46 f47 ?v0) ?v1) ?v1))))
(assert (forall ((?v0 S2) (?v1 S5)) (not (= (f39 (f40 f41 ?v0) ?v1) ?v1))))
(assert (forall ((?v0 S12) (?v1 S9)) (not (= (f10 (f11 f12 ?v0) ?v1) ?v1))))
(assert (forall ((?v0 S30) (?v1 S29) (?v2 S30) (?v3 S29)) (= (= (f42 (f43 f44 ?v0) ?v1) (f42 (f43 f44 ?v2) ?v3)) (and (= ?v0 ?v2) (= ?v1 ?v3)))))
(assert (forall ((?v0 S29) (?v1 S33) (?v2 S29) (?v3 S33)) (= (= (f45 (f46 f47 ?v0) ?v1) (f45 (f46 f47 ?v2) ?v3)) (and (= ?v0 ?v2) (= ?v1 ?v3)))))
(assert (forall ((?v0 S2) (?v1 S5) (?v2 S2) (?v3 S5)) (= (= (f39 (f40 f41 ?v0) ?v1) (f39 (f40 f41 ?v2) ?v3)) (and (= ?v0 ?v2) (= ?v1 ?v3)))))
(assert (forall ((?v0 S12) (?v1 S9) (?v2 S12) (?v3 S9)) (= (= (f10 (f11 f12 ?v0) ?v1) (f10 (f11 f12 ?v2) ?v3)) (and (= ?v0 ?v2) (= ?v1 ?v3)))))
(assert (forall ((?v0 S6) (?v1 S7) (?v2 S8) (?v3 S12) (?v4 S2) (?v5 S9) (?v6 S5)) (=> (= (f36 ?v0 ?v1 ?v2 ?v3 ?v4) f1) (=> (= (f6 ?v0 ?v1 ?v2 ?v5 ?v6) f1) (= (f6 ?v0 ?v1 ?v2 (f10 (f11 f12 ?v3) ?v5) (f39 (f40 f41 ?v4) ?v6)) f1)))))
(assert (forall ((?v0 S6) (?v1 S2) (?v2 S5) (?v3 S5)) (= (= (f15 (f16 ?v0) (f39 (f40 f41 ?v1) ?v2) ?v3) f1) (exists ((?v4 S2) (?v5 S5)) (let ((?v_0 (f16 ?v0))) (and (= ?v3 (f39 (f40 f41 ?v4) ?v5)) (and (= (f3 (f4 ?v_0 ?v1) ?v4) f1) (= (f15 ?v_0 ?v2 ?v5) f1))))))))
(assert (forall ((?v0 S12) (?v1 S7) (?v2 S22) (?v3 S12) (?v4 S7) (?v5 S22) (?v6 S6) (?v7 S8) (?v8 S2)) (=> (= (f18 (f19 (f20 f21 (f22 (f23 f24 ?v0) (f26 (f27 f28 ?v1) ?v2))) (f22 (f23 f24 ?v3) (f26 (f27 f28 ?v4) ?v5))) (f32 ?v6)) f1) (=> (= (f36 ?v6 ?v1 ?v7 ?v0 ?v8) f1) (=> (= (f48 ?v6 ?v1) f1) (= (f48 ?v6 ?v4) f1))))))
(assert (forall ((?v0 S12) (?v1 S7) (?v2 S22) (?v3 S12) (?v4 S7) (?v5 S22) (?v6 S6) (?v7 S8) (?v8 S2)) (=> (= (f18 (f19 (f20 f21 (f22 (f23 f24 ?v0) (f26 (f27 f28 ?v1) ?v2))) (f22 (f23 f24 ?v3) (f26 (f27 f28 ?v4) ?v5))) (f32 ?v6)) f1) (=> (= (f36 ?v6 ?v1 ?v7 ?v0 ?v8) f1) (=> (= (f49 ?v6 ?v1 ?v2 ?v7) f1) (= (f49 ?v6 ?v4 ?v5 ?v7) f1))))))
(assert (forall ((?v0 S12) (?v1 S19) (?v2 S12) (?v3 S19) (?v4 S6) (?v5 S8) (?v6 S2)) (let ((?v_0 (f34 (f35 ?v4) ?v5))) (=> (= (f18 (f19 (f20 f21 (f22 (f23 f24 ?v0) ?v1)) (f22 (f23 f24 ?v2) ?v3)) (f32 ?v4)) f1) (=> (= (f36 ?v4 (f50 ?v1) ?v5 ?v0 ?v6) f1) (=> (= (f33 ?v_0 ?v1) f1) (= (f33 ?v_0 ?v3) f1)))))))
(assert (forall ((?v0 S14) (?v1 S13)) (=> (forall ((?v2 S16) (?v3 S12) (?v4 S7) (?v5 S22)) (= (f51 ?v0 (f19 (f20 f21 ?v2) (f22 (f23 f24 ?v3) (f26 (f27 f28 ?v4) ?v5)))) f1)) (= (f51 ?v0 ?v1) f1))))
(assert (forall ((?v0 S7) (?v1 S22) (?v2 S7) (?v3 S22)) (=> (= (f26 (f27 f28 ?v0) ?v1) (f26 (f27 f28 ?v2) ?v3)) (=> (=> (= ?v0 ?v2) (=> (= ?v1 ?v3) false)) false))))
(assert (forall ((?v0 S12) (?v1 S19) (?v2 S12) (?v3 S19)) (=> (= (f22 (f23 f24 ?v0) ?v1) (f22 (f23 f24 ?v2) ?v3)) (=> (=> (= ?v0 ?v2) (=> (= ?v1 ?v3) false)) false))))
(assert (forall ((?v0 S16) (?v1 S16) (?v2 S16) (?v3 S16)) (=> (= (f19 (f20 f21 ?v0) ?v1) (f19 (f20 f21 ?v2) ?v3)) (=> (=> (= ?v0 ?v2) (=> (= ?v1 ?v3) false)) false))))
(assert (forall ((?v0 S7) (?v1 S22) (?v2 S7) (?v3 S22)) (= (= (f26 (f27 f28 ?v0) ?v1) (f26 (f27 f28 ?v2) ?v3)) (and (= ?v0 ?v2) (= ?v1 ?v3)))))
(assert (forall ((?v0 S12) (?v1 S19) (?v2 S12) (?v3 S19)) (= (= (f22 (f23 f24 ?v0) ?v1) (f22 (f23 f24 ?v2) ?v3)) (and (= ?v0 ?v2) (= ?v1 ?v3)))))
(assert (forall ((?v0 S16) (?v1 S16) (?v2 S16) (?v3 S16)) (= (= (f19 (f20 f21 ?v0) ?v1) (f19 (f20 f21 ?v2) ?v3)) (and (= ?v0 ?v2) (= ?v1 ?v3)))))
(assert (forall ((?v0 S24)) (= (forall ((?v1 S19)) (= (f33 ?v0 ?v1) f1)) (forall ((?v1 S7) (?v2 S22)) (= (f33 ?v0 (f26 (f27 f28 ?v1) ?v2)) f1)))))
(assert (forall ((?v0 S36)) (= (forall ((?v1 S16)) (= (f52 ?v0 ?v1) f1)) (forall ((?v1 S12) (?v2 S19)) (= (f52 ?v0 (f22 (f23 f24 ?v1) ?v2)) f1)))))
(assert (forall ((?v0 S14)) (= (forall ((?v1 S13)) (= (f51 ?v0 ?v1) f1)) (forall ((?v1 S16) (?v2 S16)) (= (f51 ?v0 (f19 (f20 f21 ?v1) ?v2)) f1)))))
(assert (forall ((?v0 S13)) (=> (forall ((?v1 S16) (?v2 S12) (?v3 S7) (?v4 S22)) (=> (= ?v0 (f19 (f20 f21 ?v1) (f22 (f23 f24 ?v2) (f26 (f27 f28 ?v3) ?v4)))) false)) false)))
(assert (forall ((?v0 S16)) (=> (forall ((?v1 S12) (?v2 S7) (?v3 S22)) (=> (= ?v0 (f22 (f23 f24 ?v1) (f26 (f27 f28 ?v2) ?v3))) false)) false)))
(assert (forall ((?v0 S13)) (=> (forall ((?v1 S16) (?v2 S12) (?v3 S19)) (=> (= ?v0 (f19 (f20 f21 ?v1) (f22 (f23 f24 ?v2) ?v3))) false)) false)))
(check-sat)
(exit)
